82 78 64 74 55 99 94 18 41 75 89 87 79 0 32 65 93 37 77 8 96 29 21 12 22 56 98 4 43 45 9 88 1 86 13 20 39 67 33 83 16 69 70 47 38 57 19 3 46 40 36 17 5 60 51 71 49 6 53 26 15 7 35 34 52 63 91 27 72 2 54 68 61 11 10 44 90 97 30 95 80 81 85 76 84 25 66 92 50 23 59 58 24 62 73 31 14 42 28 48 

